N = 14;
H = 6;
T = 2;

avail = array3d(1..N, 1..H, 1..T, [8, 6, 9, 0, 2, 10, 4, 4, 8, 6, 9, 6, 9, 6, 1, 8, 6, 8, 3, 4, 4, 8, 9, 2, 1, 4, 3, 1, 5, 6, 7, 0, 1, 3, 4, 3, 3, 7, 5, 5, 0, 5, 6, 5, 7, 2, 6, 8, 3, 10, 9, 3, 4, 3, 7, 9, 5, 5, 10, 5, 4, 9, 10, 5, 2, 5, 10, 0, 8, 9, 0, 10, 6, 8, 4, 2, 7, 0, 5, 3, 8, 9, 4, 7, 0, 9, 9, 3, 0, 8, 2, 6, 9, 8, 6, 10, 8, 10, 7, 0, 0, 0, 5, 2, 8, 8, 3, 8, 6, 5, 5, 7, 6, 5, 2, 2, 8, 0, 7, 8, 2, 1, 10, 7, 10, 10, 9, 1, 7, 9, 9, 6, 9, 4, 2, 2, 9, 9, 3, 9, 7, 6, 9, 1, 7, 7, 9, 8, 0, 5, 10, 6, 6, 7, 8, 2, 3, 9, 1, 4, 0, 9, 8, 6, 9, 5, 7, 3]);

r = array2d(1..H, 1..T, [2, 3, 3, 8, 2, 4, 6, 5, 7, 3, 3, 5]);
